Maximize
 obj: 0
Subject to

\true constraints
   78 X1
 +    82 X2
 +    75 X3
 +    81 X4
 +    76 X5
 +    79 X6
 +    67 X7
 +    77 X8
 +    69 X9
 +    68 X10
 +    67 X11
 +    84 X12
 +    79 X13
 +    80 X14
 +    74 X15
< 568.000000

\multiple objectives
   72 X1
 +    83 X2
 +    76 X3
 +    68 X4
 +    62 X5
 +    61 X6
 +    67 X7
 +    67 X8
 +    62 X9
 +    76 X10
 +    90 X11
 +    85 X12
 +    98 X13
 +    87 X14
 +    69 X15
> 1
   94 X1
 +    84 X2
 +    93 X3
 +    64 X4
 +    86 X5
 +    87 X6
 +    78 X7
 +    83 X8
 +    76 X9
 +    96 X10
 +    84 X11
 +    61 X12
 +    87 X13
 +    74 X14
 +    98 X15
> 2
   62 X1
 +    69 X2
 +   100 X3
 +    97 X4
 +    64 X5
 +    62 X6
 +   100 X7
 +    67 X8
 +    60 X9
 +    65 X10
 +    89 X11
 +    73 X12
 +    73 X13
 +    89 X14
 +   100 X15
> 3
   96 X1
 +    73 X2
 +    75 X3
 +    86 X4
 +    62 X5
 +   100 X6
 +    73 X7
 +    63 X8
 +    70 X9
 +    94 X10
 +    90 X11
 +    77 X12
 +    88 X13
 +    76 X14
 +    89 X15
> 4
   70 X1
 +    88 X2
 +    69 X3
 +    82 X4
 +    86 X5
 +    80 X6
 +    92 X7
 +    88 X8
 +    85 X9
 +    88 X10
 +   100 X11
 +    86 X12
 +    98 X13
 +    67 X14
 +    80 X15
> 5
   84 X1
 +    61 X2
 +    61 X3
 +    75 X4
 +    89 X5
 +    72 X6
 +    87 X7
 +    85 X8
 +   100 X9
 +    81 X10
 +    69 X11
 +    89 X12
 +    63 X13
 +    73 X14
 +    88 X15
> 6
BINARY
X1
X2
X3
X4
X5
X6
X7
X8
X9
X10
X11
X12
X13
X14
X15
END
